Route #1: 26 34 16 15 36 12 31 10
Route #2: 1 23 2 8 38 7
Route #3: 33 20 21 5 18 19 14 28 37
Route #4: 41 35 4
Route #5: 40 27 25 32 29 30 13 11
Route #6: 3 22 24 6 42 39 17 9
Cost 742
Time 0.056204
